NAME: n60q20D.tsp, 60 nodes, semilla 333
COMMENT: Problema aleatorio de norma euclidea
DIMENSION: 60
CAPACITY: 20
EDGE_WEIGHT_TYPE: EUC_2D
NODE_COORD_SECTION
1   0.0000   0.0000
2 -273.0000 -373.0000
3 -371.0000 -268.0000
4 179.0000 469.0000
5 276.0000 -496.0000
6 422.0000 287.0000
7 -499.0000 -363.0000
8 -316.0000  89.0000
9 -162.0000 460.0000
10   1.0000 -59.0000
11 344.0000 303.0000
12 200.0000 -248.0000
13 -28.0000 -410.0000
14 382.0000  85.0000
15 -112.0000 472.0000
16 262.0000 315.0000
17 274.0000 221.0000
18 101.0000  87.0000
19 -307.0000 284.0000
20 209.0000 -451.0000
21 482.0000 441.0000
22 -130.0000  11.0000
23 -336.0000 386.0000
24  97.0000 -186.0000
25 415.0000 209.0000
26 -479.0000 370.0000
27 -95.0000 132.0000
28 242.0000 444.0000
29 -126.0000 -196.0000
30  75.0000 -326.0000
31 194.0000 123.0000
32 -301.0000 -395.0000
33 -440.0000 -479.0000
34 -272.0000 -387.0000
35 489.0000  56.0000
36  88.0000 182.0000
37 -231.0000 311.0000
38 331.0000 -437.0000
39 -94.0000 228.0000
40 336.0000 296.0000
41 -421.0000 -186.0000
42 -192.0000 492.0000
43 410.0000 -423.0000
44 464.0000 302.0000
45  53.0000 -493.0000
46 363.0000 286.0000
47 149.0000 375.0000
48 -321.0000 -352.0000
49 461.0000   8.0000
50 478.0000 157.0000
51 -126.0000 -72.0000
52 -40.0000 -77.0000
53 -253.0000 -55.0000
54 -305.0000 -10.0000
55 -470.0000 460.0000
56  43.0000 -26.0000
57  27.0000  80.0000
58 495.0000 -429.0000
59  36.0000 310.0000
60 124.0000 382.0000
DISPLAY_DATA_SECTION:
 1  250  250
 2  113   63
 3   64  116
 4  339  484
 5  388    2
 6  461  393
 7    0   68
 8   92  294
 9  169  480
10  250  220
11  422  401
12  350  126
13  236   45
14  441  292
15  194  486
16  381  407
17  387  360
18  300  293
19   96  392
20  354   24
21  491  470
22  185  255
23   82  443
24  298  157
25  457  354
26   10  435
27  202  316
28  371  472
29  187  152
30  287   87
31  347  311
32   99   52
33   30   10
34  114   56
35  494  278
36  294  341
37  134  405
38  415   31
39  203  364
40  418  398
41   39  157
42  154  496
43  455   38
44  482  401
45  276    3
46  431  393
47  324  437
48   89   74
49  480  254
50  489  328
51  187  214
52  230  211
53  123  222
54   97  245
55   15  480
56  271  237
57  263  290
58  497   35
59  268  405
60  312  441
DEMAND_SECTION
1 7
2 0
3 5
4 1
5 1
6 6
7 2
8 4
9 -4
10 -1
11 9
12 0
13 -2
14 8
15 5
16 2
17 7
18 -6
19 0
20 -7
21 -6
22 2
23 7
24 -8
25 9
26 -6
27 -10
28 6
29 -4
30 -7
31 2
32 6
33 5
34 8
35 -7
36 -6
37 -9
38 -3
39 -9
40 2
41 10
42 1
43 10
44 -5
45 -9
46 0
47 -4
48 -10
49 5
50 6
51 5
52 2
53 0
54 0
55 -6
56 0
57 0
58 0
59 -10
60 -4
EOF